104
0 73 26 94 42 101 14 86 23 7 
90 13 55 100 95 79 92 61 70 36 
88 52 57 10 48 96 43 85 9 2 
49 24 83 6 75 67 50 46 44 47 
34 98 3 8 58 102 30 63 22 66 
12 99 59 77 103 82 89 32 65 87 
62 11 18 76 20 81 39 4 91 68 
31 29 60 71 74 93 37 53 38 1 
40 64 19 97 45 33 28 35 84 56 
5 80 15 25 27 21 51 17 69 54 
72 16 78 41 
